* ENCODING=ISO-8859-1
NAME          CPLEX
ROWS
 N  obj1    
 G  c1      
 G  c2      
 G  c3      
 G  c4      
 G  c5      
 G  c6      
 G  c7      
 G  c8      
 G  c9      
 G  c10     
 G  c11     
 G  c12     
 G  c13     
 G  c14     
 G  c15     
 G  c16     
 G  c17     
 G  c18     
 G  c19     
 G  c20     
 G  c21     
 G  c22     
 G  c23     
 G  c24     
 G  c25     
 G  c26     
 G  c27     
 G  c28     
 G  c29     
 G  c30     
 G  c31     
 G  c32     
 G  c33     
 G  c34     
 G  c35     
 G  c36     
 G  c37     
 G  c38     
 G  c39     
 G  c40     
 G  c41     
 G  c42     
 G  c43     
 G  c44     
 G  c45     
 G  c46     
 G  c47     
 G  c48     
 G  c49     
 G  c50     
 G  c51     
 G  c52     
 G  c53     
 G  c54     
 G  c55     
 G  c56     
 G  c57     
 G  c58     
 G  c59     
 G  c60     
COLUMNS
    MARK0000  'MARKER'                 'INTORG'
    x1        obj1                            1
    x1        c11                           745
    x1        c12                           504
    x1        c57                           853
    x1        c60                           671
    x2        obj1                            1
    x2        c12                           874
    x2        c24                           819
    x2        c36                           124
    x2        c45                           775
    x2        c52                           421
    x2        c55                           945
    x3        obj1                            1
    x3        c8                            642
    x3        c24                           468
    x3        c29                           599
    x3        c41                           442
    x3        c57                           448
    x4        obj1                            1
    x4        c21                           427
    x4        c47                           591
    x4        c50                           809
    x4        c53                           283
    x4        c58                           750
    x5        obj1                            1
    x5        c8                            988
    x5        c13                           503
    x5        c18                           247
    x5        c19                           793
    x5        c20                           214
    x5        c22                           752
    x5        c42                           354
    x5        c46                           351
    x5        c54                           464
    x6        obj1                            1
    x6        c29                           963
    x6        c42                           366
    x6        c46                           642
    x6        c50                           143
    x6        c59                           203
    x7        obj1                            1
    x7        c6                            798
    x7        c14                           203
    x7        c18                           722
    x7        c26                           590
    x7        c39                          1000
    x7        c41                           735
    x7        c52                           215
    x7        c60                           347
    x8        obj1                            1
    x8        c12                           873
    x8        c22                           579
    x8        c26                           117
    x8        c32                           972
    x8        c43                           814
    x8        c45                           287
    x8        c51                           579
    x9        obj1                            1
    x9        c5                            582
    x9        c23                           914
    x9        c35                           577
    x9        c40                           931
    x9        c43                           226
    x9        c57                           544
    x10       obj1                            1
    x10       c3                            713
    x10       c10                           139
    x10       c30                           458
    x10       c32                           446
    x10       c33                           294
    x10       c34                           972
    x10       c41                           741
    x10       c49                           713
    x11       obj1                            1
    x11       c9                            674
    x11       c16                           526
    x11       c27                           303
    x11       c28                           141
    x11       c33                           626
    x11       c36                           134
    x11       c39                           446
    x11       c59                           869
    x12       obj1                            1
    x12       c2                            980
    x12       c7                            146
    x12       c44                           129
    x13       obj1                            1
    x13       c13                           509
    x13       c19                           431
    x13       c27                           597
    x13       c28                           629
    x13       c29                           487
    x13       c51                           744
    x14       obj1                            1
    x14       c10                           801
    x14       c17                           912
    x14       c21                           287
    x14       c24                           925
    x14       c32                           820
    x14       c34                           689
    x14       c38                           651
    x14       c48                           426
    x14       c59                           487
    x15       obj1                            1
    x15       c9                            184
    x15       c13                           605
    x15       c14                           508
    x15       c26                           313
    x15       c30                           872
    x15       c36                           647
    x15       c58                           819
    x16       obj1                            1
    x16       c1                            412
    x16       c31                           873
    x16       c55                           920
    x17       obj1                            1
    x17       c11                           490
    x17       c13                           981
    x17       c20                           715
    x17       c39                           192
    x17       c42                           302
    x17       c43                           215
    x17       c53                           587
    x18       obj1                            1
    x18       c51                           280
    x18       c56                           717
    x19       obj1                            1
    x19       c4                            601
    x19       c6                            942
    x19       c7                            927
    x19       c11                           958
    x19       c16                           836
    x19       c28                           896
    x19       c35                           707
    x19       c42                           175
    x19       c47                           550
    x20       obj1                            1
    x20       c10                           282
    x20       c13                           826
    x20       c15                           462
    x20       c28                           324
    x20       c58                           504
    x21       obj1                            1
    x21       c19                           769
    x21       c32                           367
    x21       c35                           396
    x21       c36                           730
    x21       c37                           168
    x21       c38                           719
    x21       c52                           652
    x21       c55                           380
    x22       obj1                            1
    x22       c9                            915
    x22       c14                           357
    x22       c22                           360
    x22       c23                           219
    x22       c27                           329
    x22       c29                           515
    x22       c55                           428
    x22       c57                           459
    x23       obj1                            1
    x23       c2                            406
    x23       c9                            293
    x23       c14                           553
    x23       c15                           891
    x23       c38                           687
    x23       c40                           881
    x23       c45                           216
    x23       c48                           237
    x23       c52                           909
    x23       c58                           993
    x24       obj1                            1
    x24       c3                            537
    x24       c9                            245
    x24       c10                           588
    x24       c22                           875
    x24       c29                           797
    x24       c32                           680
    x25       obj1                            1
    x25       c9                            862
    x25       c28                           451
    x25       c32                           441
    x25       c40                           351
    x25       c46                           492
    x25       c50                           777
    x26       obj1                            1
    x26       c8                            238
    x26       c23                           401
    x26       c28                           510
    x26       c34                           114
    x26       c42                           297
    x26       c49                           415
    x27       obj1                            1
    x27       c8                            813
    x27       c12                           186
    x27       c59                           699
    x28       obj1                            1
    x28       c4                            635
    x28       c7                            179
    x28       c10                           317
    x28       c17                           968
    x28       c20                           930
    x28       c21                           206
    x28       c35                           886
    x28       c44                           641
    x28       c48                           848
    x28       c52                           238
    x29       obj1                            1
    x29       c2                            384
    x29       c7                            120
    x29       c16                           780
    x29       c53                           196
    x29       c55                           572
    x30       obj1                            1
    x30       c6                            837
    x30       c17                           726
    x30       c21                           142
    x30       c28                           808
    x30       c30                           347
    x30       c45                           477
    x30       c48                           285
    x30       c51                           171
    x30       c54                           263
    x31       obj1                            1
    x31       c7                            642
    x31       c23                           680
    x31       c35                           468
    x31       c48                           179
    x31       c57                           893
    x32       obj1                            1
    x32       c1                            915
    x32       c41                           558
    x32       c47                           509
    x32       c50                           503
    x32       c59                           765
    x33       obj1                            1
    x33       c1                            670
    x33       c3                            853
    x33       c8                            117
    x33       c14                           134
    x33       c16                           848
    x33       c20                           213
    x33       c31                           609
    x33       c37                           626
    x34       obj1                            1
    x34       c10                           268
    x34       c32                           170
    x34       c33                           199
    x34       c53                           460
    x34       c54                           159
    x34       c58                           213
    x35       obj1                            1
    x35       c2                            237
    x35       c4                            758
    x35       c19                           560
    x35       c20                           913
    x35       c24                           976
    x35       c39                           577
    x36       obj1                            1
    x36       c15                           555
    x36       c27                           751
    x36       c46                           325
    x36       c55                           162
    x36       c59                           705
    x36       c60                           732
    x37       obj1                            1
    x37       c3                            912
    x37       c5                            106
    x37       c7                            754
    x37       c35                           139
    x37       c37                           586
    x37       c44                           429
    x38       obj1                            1
    x38       c5                            187
    x38       c12                           906
    x38       c13                           490
    x38       c24                           265
    x38       c25                           454
    x38       c40                           331
    x39       obj1                            1
    x39       c2                            715
    x39       c14                           308
    x39       c15                           369
    x39       c25                           221
    x39       c42                           322
    x39       c58                           593
    x39       c60                           726
    x40       obj1                            1
    x40       c10                           848
    x40       c13                           946
    x40       c18                           355
    x40       c24                           861
    x41       obj1                            1
    x41       c6                            790
    x41       c7                            827
    x41       c11                           962
    x41       c19                           921
    x41       c20                           984
    x41       c22                           417
    x41       c27                           311
    x41       c47                           542
    x42       obj1                            1
    x42       c2                            541
    x42       c5                            374
    x42       c32                           345
    x42       c40                           240
    x42       c46                           820
    x42       c48                           771
    x42       c56                           115
    x43       obj1                            1
    x43       c6                            122
    x43       c7                            379
    x43       c23                           657
    x43       c51                           773
    x44       obj1                            1
    x44       c15                           997
    x44       c29                           727
    x44       c50                           337
    x45       obj1                            1
    x45       c2                            960
    x45       c19                           410
    x45       c24                           382
    x45       c39                           422
    x46       obj1                            1
    x46       c13                           596
    x46       c29                           388
    x47       obj1                            1
    x47       c3                            393
    x47       c16                           614
    x47       c23                           504
    x47       c46                           563
    x47       c55                           363
    x47       c57                           738
    x48       obj1                            1
    x48       c4                            176
    x48       c11                           987
    x48       c25                           392
    x49       obj1                            1
    x49       c6                            102
    x49       c17                           276
    x49       c42                           296
    x49       c58                           457
    x50       obj1                            1
    x50       c20                           173
    x50       c51                           508
    x51       obj1                            1
    x51       c4                            881
    x51       c22                           317
    x51       c38                           101
    x51       c41                           378
    x51       c42                           492
    x51       c51                           447
    x52       obj1                            1
    x52       c5                            425
    x52       c11                           129
    x52       c14                           719
    x52       c15                           580
    x52       c38                           190
    x52       c49                           663
    x53       obj1                            1
    x53       c23                          1000
    x53       c27                           531
    x53       c28                           922
    x53       c32                           120
    x53       c35                           686
    x53       c53                           607
    x53       c54                           735
    x53       c55                           376
    x54       obj1                            1
    x54       c11                           450
    x54       c15                           942
    x54       c20                           237
    x54       c58                           947
    x55       obj1                            1
    x55       c4                            447
    x55       c10                           439
    x55       c23                           706
    x55       c29                           684
    x55       c37                           329
    x55       c39                           624
    x55       c40                           784
    x55       c54                           311
    x55       c57                           712
    x56       obj1                            1
    x56       c10                           462
    x56       c13                           733
    x56       c29                           929
    x56       c38                           256
    x56       c45                           900
    x56       c59                           128
    x57       obj1                            1
    x57       c2                            718
    x57       c9                            992
    x57       c11                           908
    x57       c14                           589
    x57       c31                           698
    x57       c38                           983
    x57       c51                           822
    x57       c57                           747
    x58       obj1                            1
    x58       c3                            526
    x58       c7                            325
    x58       c14                           886
    x58       c18                           946
    x58       c52                           311
    x58       c56                           556
    x58       c59                           114
    x59       obj1                            1
    x59       c6                            274
    x59       c8                            985
    x59       c19                           896
    x59       c20                           820
    x59       c40                           823
    x59       c42                           410
    x59       c55                           612
    x59       c59                           937
    x60       obj1                            1
    x60       c12                           682
    x60       c19                           474
    x60       c25                           316
    x60       c28                           724
    x60       c37                           587
    x60       c44                           926
    x60       c46                           841
    x60       c51                           204
    MARK0001  'MARKER'                 'INTEND'
RHS
    rhs       c1                            999
    rhs       c2                           2471
    rhs       c3                           1967
    rhs       c4                           1749
    rhs       c5                            837
    rhs       c6                           1933
    rhs       c7                           2150
    rhs       c8                           1892
    rhs       c9                           2083
    rhs       c10                          2072
    rhs       c11                          2815
    rhs       c12                          2013
    rhs       c13                          3095
    rhs       c14                          2129
    rhs       c15                          2398
    rhs       c16                          1802
    rhs       c17                          1441
    rhs       c18                          1135
    rhs       c19                          2627
    rhs       c20                          2600
    rhs       c21                           531
    rhs       c22                          1650
    rhs       c23                          2541
    rhs       c24                          2348
    rhs       c25                           692
    rhs       c26                           510
    rhs       c27                          1411
    rhs       c28                          2703
    rhs       c29                          3045
    rhs       c30                           839
    rhs       c31                          1090
    rhs       c32                          2181
    rhs       c33                           560
    rhs       c34                           888
    rhs       c35                          1930
    rhs       c36                           818
    rhs       c37                          1148
    rhs       c38                          1794
    rhs       c39                          1631
    rhs       c40                          2171
    rhs       c41                          1427
    rhs       c42                          1507
    rhs       c43                           628
    rhs       c44                          1063
    rhs       c45                          1328
    rhs       c46                          2017
    rhs       c47                          1096
    rhs       c48                          1373
    rhs       c49                           896
    rhs       c50                          1285
    rhs       c51                          2264
    rhs       c52                          1373
    rhs       c53                          1067
    rhs       c54                           966
    rhs       c55                          2379
    rhs       c56                           694
    rhs       c57                          2697
    rhs       c58                          2638
    rhs       c59                          2454
    rhs       c60                          1238
BOUNDS
 LI bnd       x1        0
 LI bnd       x2        0
 LI bnd       x3        0
 LI bnd       x4        0
 LI bnd       x5        0
 LI bnd       x6        0
 LI bnd       x7        0
 LI bnd       x8        0
 LI bnd       x9        0
 LI bnd       x10       0
 LI bnd       x11       0
 LI bnd       x12       0
 LI bnd       x13       0
 LI bnd       x14       0
 LI bnd       x15       0
 LI bnd       x16       0
 LI bnd       x17       0
 LI bnd       x18       0
 LI bnd       x19       0
 LI bnd       x20       0
 LI bnd       x21       0
 LI bnd       x22       0
 LI bnd       x23       0
 LI bnd       x24       0
 LI bnd       x25       0
 LI bnd       x26       0
 LI bnd       x27       0
 LI bnd       x28       0
 LI bnd       x29       0
 LI bnd       x30       0
 LI bnd       x31       0
 LI bnd       x32       0
 LI bnd       x33       0
 LI bnd       x34       0
 LI bnd       x35       0
 LI bnd       x36       0
 LI bnd       x37       0
 LI bnd       x38       0
 LI bnd       x39       0
 LI bnd       x40       0
 LI bnd       x41       0
 LI bnd       x42       0
 LI bnd       x43       0
 LI bnd       x44       0
 LI bnd       x45       0
 LI bnd       x46       0
 LI bnd       x47       0
 LI bnd       x48       0
 LI bnd       x49       0
 LI bnd       x50       0
 LI bnd       x51       0
 LI bnd       x52       0
 LI bnd       x53       0
 LI bnd       x54       0
 LI bnd       x55       0
 LI bnd       x56       0
 LI bnd       x57       0
 LI bnd       x58       0
 LI bnd       x59       0
 LI bnd       x60       0
ENDATA
